c User generated cnf file
p cnf 11 18
1 9 -8 0 
8 -4 1 0 
7 -8 10 0 
11 1 -10 0 
4 -11 10 0 
-8 6 9 0 
2 -5 9 0 
-11 9 8 0 
1 -10 4 0 
11 -1 6 0 
1 2 -10 0 
-9 8 7 0 
10 -7 8 0 
7 -5 8 0 
6 8 -2 0 
7 9 -3 0 
5 -8 11 0 
-4 2 11 0 
